1 3 13 21 23 30 31 33 35 36 37 38 39 42 43 44 45 47 48 51 52 53 55 60 61 62 63 64 65 66 67 68 70 72 73 74 75 77 78 79 80 83 84 85 86 90 92 94 95 97 98 99 102 103 104 109 112 116 117 118 122 123 124 125 126 127 128 129 130 136 143 145 146 152 154 156 157 160 161 163 167 169 172 174 175 177 179 180 181 182 184 186 188 189 190 191 192 196 197 199 200 202 204 209 213 214 216 218 219 222 224 232 233 241 244 245 251 252 253 255 256 257 259 261 262 263 264 266 267 268 269 270 272 275 276 277 279 281 282 283 285 286 288 290 291 293 295 297 299 300 303 305 307 313 314 316 318 319 322 323 324 326 329 332 333 334 336 340 341 342 343 350 353 355 360 361 362 363 365 366 368 369 370 371 373 374 375 378 380 387 390 393 394 396 397 399 401 402 403 409 411 412 413 419 421 422 423 427 428 430 436 437 442 445 446 447 448 450 452 453 454 455 459 460 461 464 468 469 470 471 472 475 476 478 479 480 483 486 488 489 490 492 493 494 495 498 499 500
